p cnf 693
-5 -64
-6 -24
-7 -27
-8 -76
-9 -82
-10 -102
-11 -121
-12 -139
-13 -149
-14 -168
-15 -187
-16 -205
-17 -215
-18 -231
-19 1
-19 -8
-1 8 19
-20 2
-20 -9
-2 9 20
-21 -19
-21 20
19 -20 21
-22 -5
-22 19
5 -19 22
-23 5
-23 6
-5 -6 23
-24 -22
-24 -23
22 23 24
-25 -5
-25 21
5 -21 25
-26 5
-26 7
-5 -7 26
-27 -25
-27 -26
25 26 27
-28 1
-28 -24
-1 24 28
-29 2
-29 -27
-2 27 29
-30 10
-30 -11
-10 11 30
-31 -12
-31 -13
12 13 31
-32 30
-32 31
-30 -31 32
-33 -10
-33 -11
10 11 33
-34 -12
-34 13
12 -13 34
-35 33
-35 34
-33 -34 35
-36 -32
-36 -35
32 35 36
-37 28
-37 -36
-28 36 37
-38 14
-38 -15
-14 15 38
-39 -16
-39 -17
16 17 39
-40 38
-40 39
-38 -39 40
-41 -14
-41 -15
14 15 41
-42 -16
-42 17
16 -17 42
-43 41
-43 42
-41 -42 43
-44 -40
-44 -43
40 43 44
-45 29
-45 -44
-29 44 45
-46 -37
-46 -45
37 45 46
-47 -10
-47 11
10 -11 47
-48 12
-48 -13
-12 13 48
-49 47
-49 48
-47 -48 49
-50 12
-50 13
-12 -13 50
-51 30
-51 50
-30 -50 51
-52 -49
-52 -51
49 51 52
-53 28
-53 -52
-28 52 53
-54 -14
-54 15
14 -15 54
-55 16
-55 -17
-16 17 55
-56 54
-56 55
-54 -55 56
-57 16
-57 17
-16 -17 57
-58 38
-58 57
-38 -57 58
-59 -56
-59 -58
56 58 59
-60 29
-60 -59
-29 59 60
-61 -53
-61 -60
53 60 61
-62 5
-62 61
-5 -61 62
-63 46
-63 62
-46 -62 63
-64 46
-64 -63
-46 63 64
-65 -8
-65 9
8 -9 65
-66 33
-66 50
-33 -50 66
-67 28
-67 66
-28 -66 67
-68 41
-68 57
-41 -57 68
-69 29
-69 68
-29 -68 69
-70 -67
-70 -69
67 69 70
-71 30
-71 48
-30 -48 71
-72 28
-72 71
-28 -71 72
-73 8
-73 -70
-8 70 73
-74 8
-74 -73
-8 73 74
-75 -72
-75 74
72 -74 75
-76 -72
-76 -75
72 75 76
-77 38
-77 55
-38 -55 77
-78 29
-78 77
-29 -77 78
-79 65
-79 -70
-65 70 79
-80 9
-80 -79
-9 79 80
-81 -78
-81 80
78 -80 81
-82 -78
-82 -81
78 81 82
-83 -8
-83 -9
8 9 83
-84 -11
-84 -33
11 33 84
-85 12
-85 33
-12 -33 85
-86 -12
-86 -84
12 84 86
-87 -85
-87 -86
85 86 87
-88 -3
-88 10
3 -10 88
-89 10
-89 -88
-10 88 89
-90 11
-90 -89
-11 89 90
-91 3
-91 -10
-3 10 91
-92 -11
-92 91
11 -91 92
-93 -47
-93 -92
47 92 93
-94 12
-94 90
-12 -90 94
-95 -12
-95 -93
12 93 95
-96 -94
-96 -95
94 95 96
-97 13
-97 -87
-13 87 97
-98 -13
-98 -96
13 96 98
-99 -97
-99 -98
97 98 99
-100 28
-100 -99
-28 99 100
-101 10
-101 -28
-10 28 101
-102 -100
-102 -101
100 101 102
-103 10
-103 83
-10 -83 103
-104 -11
-104 103
11 -103 104
-105 -47
-105 -104
47 104 105
-106 12
-106 30
-12 -30 106
-107 -12
-107 -105
12 105 107
-108 -106
-108 -107
106 107 108
-109 11
-109 -90
-11 90 109
-110 -10
-110 -18
10 18 110
-111 11
-111 110
-11 -110 111
-112 -30
-112 -111
30 111 112
-113 12
-113 -109
-12 109 113
-114 -12
-114 -112
12 112 114
-115 -113
-115 -114
113 114 115
-116 13
-116 -108
-13 108 116
-117 -13
-117 -115
13 115 117
-118 -116
-118 -117
116 117 118
-119 28
-119 -118
-28 118 119
-120 11
-120 -28
-11 28 120
-121 -119
-121 -120
119 120 121
-122 10
-122 -83
-10 83 122
-123 10
-123 11
-10 -11 123
-124 -11
-124 122
11 -122 124
-125 -123
-125 -124
123 124 125
-126 -11
-126 12
11 -12 126
-127 -12
-127 -125
12 125 127
-128 -126
-128 -127
126 127 128
-129 -10
-129 18
10 -18 129
-130 -10
-130 -129
10 129 130
-131 11
-131 -130
-11 130 131
-132 -12
-132 131
12 -131 132
-133 -113
-133 -132
113 132 133
-134 13
-134 -128
-13 128 134
-135 -13
-135 -133
13 133 135
-136 -134
-136 -135
134 135 136
-137 28
-137 -136
-28 136 137
-138 12
-138 -28
-12 28 138
-139 -137
-139 -138
137 138 139
-140 12
-140 -126
-12 126 140
-141 3
-141 10
-3 -10 141
-142 11
-142 141
-11 -141 142
-143 12
-143 142
-12 -142 143
-144 13
-144 -140
-13 140 144
-145 -13
-145 143
13 -143 145
-146 -144
-146 -145
144 145 146
-147 28
-147 -146
-28 146 147
-148 13
-148 -28
-13 28 148
-149 -147
-149 -148
147 148 149
-150 -15
-150 -41
15 41 150
-151 16
-151 41
-16 -41 151
-152 -16
-152 -150
16 150 152
-153 -151
-153 -152
151 152 153
-154 -4
-154 14
4 -14 154
-155 14
-155 -154
-14 154 155
-156 15
-156 -155
-15 155 156
-157 4
-157 -14
-4 14 157
-158 -15
-158 157
15 -157 158
-159 -54
-159 -158
54 158 159
-160 16
-160 156
-16 -156 160
-161 -16
-161 -159
16 159 161
-162 -160
-162 -161
160 161 162
-163 17
-163 -153
-17 153 163
-164 -17
-164 -162
17 162 164
-165 -163
-165 -164
163 164 165
-166 29
-166 -165
-29 165 166
-167 14
-167 -29
-14 29 167
-168 -166
-168 -167
166 167 168
-169 14
-169 83
-14 -83 169
-170 -15
-170 169
15 -169 170
-171 -54
-171 -170
54 170 171
-172 16
-172 38
-16 -38 172
-173 -16
-173 -171
16 171 173
-174 -172
-174 -173
172 173 174
-175 15
-175 -156
-15 156 175
-176 -14
-176 -18
14 18 176
-177 15
-177 176
-15 -176 177
-178 -38
-178 -177
38 177 178
-179 16
-179 -175
-16 175 179
-180 -16
-180 -178
16 178 180
-181 -179
-181 -180
179 180 181
-182 17
-182 -174
-17 174 182
-183 -17
-183 -181
17 181 183
-184 -182
-184 -183
182 183 184
-185 29
-185 -184
-29 184 185
-186 15
-186 -29
-15 29 186
-187 -185
-187 -186
185 186 187
-188 14
-188 -83
-14 83 188
-189 14
-189 15
-14 -15 189
-190 -15
-190 188
15 -188 190
-191 -189
-191 -190
189 190 191
-192 -15
-192 16
15 -16 192
-193 -16
-193 -191
16 191 193
-194 -192
-194 -193
192 193 194
-195 -14
-195 18
14 -18 195
-196 -14
-196 -195
14 195 196
-197 15
-197 -196
-15 196 197
-198 -16
-198 197
16 -197 198
-199 -179
-199 -198
179 198 199
-200 17
-200 -194
-17 194 200
-201 -17
-201 -199
17 199 201
-202 -200
-202 -201
200 201 202
-203 29
-203 -202
-29 202 203
-204 16
-204 -29
-16 29 204
-205 -203
-205 -204
203 204 205
-206 16
-206 -192
-16 192 206
-207 4
-207 14
-4 -14 207
-208 15
-208 207
-15 -207 208
-209 16
-209 208
-16 -208 209
-210 17
-210 -206
-17 206 210
-211 -17
-211 209
17 -209 211
-212 -210
-212 -211
210 211 212
-213 29
-213 -212
-29 212 213
-214 17
-214 -29
-17 29 214
-215 -213
-215 -214
213 214 215
-216 31
-216 123
-31 -123 216
-217 28
-217 216
-28 -216 217
-218 39
-218 189
-39 -189 218
-219 29
-219 218
-29 -218 219
-220 -217
-220 -219
217 219 220
-221 34
-221 47
-34 -47 221
-222 28
-222 221
-28 -221 222
-223 42
-223 54
-42 -54 223
-224 29
-224 223
-29 -223 224
-225 -222
-225 -224
222 224 225
-226 -18
-226 -225
18 225 226
-227 18
-227 225
-18 -225 227
-228 -226
-228 -227
226 227 228
-229 -18
-229 -220
18 220 229
-230 220
-230 -228
-220 228 230
-231 -229
-231 -230
229 230 231
-232 48
-232 123
-48 -123 232
-233 -8
-233 232
8 -232 233
-234 55
-234 189
-55 -189 234
-235 -9
-235 234
9 -234 235
-236 233
-236 -235
-233 235 236
-237 -233
-237 235
233 -235 237
-238 -236
-238 -237
236 237 238
-239 233
-239 235
-233 -235 239
-240 -18
-240 -83
18 83 240
-241 18
-241 -220
-18 220 241
-242 -239
-242 -241
239 241 242
-243 -226
-243 -240
226 240 243
-244 242
-244 243
-242 -243 244
-244
